NAME          ClpDefau  FREE
ROWS
 N  OBJROW
 L  ZMUNI1_PCT
 L  ZMUNI2_PCT
 L  ZMUNI3_PCT
 L  ZMUNI4_PCT
 L  ZMUNI5_PCT
 L  ZMUNI6_PCT
 L  ZMUNI7_PCT
 L  ZMUNI8_PCT
 L  ZMUNI9_PCT
COLUMNS
    QMUNI1 OBJROW 1.          
    QMUNI1 ZMUNI1_PCT 28331.1844  
    QMUNI1 ZMUNI2_PCT 1929.76     
    QMUNI1 ZMUNI3_PCT 4397.6784   
    QMUNI1 ZMUNI4_PCT 3221.34494  
    QMUNI1 ZMUNI5_PCT 485.8017    
    QMUNI1 ZMUNI6_PCT 664.42489   
    QMUNI1 ZMUNI7_PCT 2111.2442   
    QMUNI1 ZMUNI8_PCT 1743.8888   
    QMUNI1 ZMUNI9_PCT 887.1079    
    QMUNI2 OBJROW 1.          
    QMUNI2 ZMUNI1_PCT 1602.0775   
    QMUNI2 ZMUNI2_PCT 33058.3573  
    QMUNI2 ZMUNI3_PCT 2440.3572   
    QMUNI2 ZMUNI4_PCT 2593.17159  
    QMUNI2 ZMUNI5_PCT  -113.0104  
    QMUNI2 ZMUNI6_PCT  -60.93979  
    QMUNI2 ZMUNI7_PCT 813.2934    
    QMUNI2 ZMUNI8_PCT 1106.8344   
    QMUNI2 ZMUNI9_PCT 1097.6792   
    QMUNI3 OBJROW 1.          
    QMUNI3 ZMUNI1_PCT 4512.9776   
    QMUNI3 ZMUNI2_PCT 3069.4962   
    QMUNI3 ZMUNI3_PCT 29873.1804  
    QMUNI3 ZMUNI4_PCT 5407.04727  
    QMUNI3 ZMUNI5_PCT 485.8017    
    QMUNI3 ZMUNI6_PCT 619.22073   
    QMUNI3 ZMUNI7_PCT 2172.8515   
    QMUNI3 ZMUNI8_PCT 2262.6877   
    QMUNI3 ZMUNI9_PCT 1887.1308   
    QMUNI4 OBJROW 1.          
    QMUNI4 ZMUNI1_PCT 3242.2066   
    QMUNI4 ZMUNI2_PCT 2964.7828   
    QMUNI4 ZMUNI3_PCT 5433.2734   
    QMUNI4 ZMUNI4_PCT 102873.3313 
    QMUNI4 ZMUNI5_PCT 47.493      
    QMUNI4 ZMUNI6_PCT 111.67526   
    QMUNI4 ZMUNI7_PCT 993.3471    
    QMUNI4 ZMUNI8_PCT 1015.2817   
    QMUNI4 ZMUNI9_PCT 572.3953    
    QMUNI5 OBJROW 1.          
    QMUNI5 ZMUNI1_PCT 381.279     
    QMUNI5 ZMUNI2_PCT 226.5931    
    QMUNI5 ZMUNI3_PCT 322.342     
    QMUNI5 ZMUNI4_PCT 259.92393   
    QMUNI5 ZMUNI5_PCT 33094.12    
    QMUNI5 ZMUNI6_PCT 3226.85241  
    QMUNI5 ZMUNI7_PCT 818.2525    
    QMUNI5 ZMUNI8_PCT 613.9755    
    QMUNI5 ZMUNI9_PCT 423.8129    
    QMUNI6 OBJROW 1.          
    QMUNI6 ZMUNI1_PCT 386.7149    
    QMUNI6 ZMUNI2_PCT 155.8304    
    QMUNI6 ZMUNI3_PCT 293.541     
    QMUNI6 ZMUNI4_PCT 226.74799   
    QMUNI6 ZMUNI5_PCT 3199.2912   
    QMUNI6 ZMUNI6_PCT 31347.46551 
    QMUNI6 ZMUNI7_PCT 586.7004    
    QMUNI6 ZMUNI8_PCT 298.1186    
    QMUNI6 ZMUNI9_PCT 100.2312    
    QMUNI7 OBJROW 1.          
    QMUNI7 ZMUNI1_PCT 1405.2391   
    QMUNI7 ZMUNI2_PCT 788.7841    
    QMUNI7 ZMUNI3_PCT 1227.0928   
    QMUNI7 ZMUNI4_PCT 929.88014   
    QMUNI7 ZMUNI5_PCT 254.5357    
    QMUNI7 ZMUNI6_PCT 450.70648   
    QMUNI7 ZMUNI7_PCT 27356.1477  
    QMUNI7 ZMUNI8_PCT 2134.3231   
    QMUNI7 ZMUNI9_PCT 555.3246    
    QMUNI8 OBJROW 1.          
    QMUNI8 ZMUNI1_PCT 793.457     
    QMUNI8 ZMUNI2_PCT 646.4959    
    QMUNI8 ZMUNI3_PCT 819.1109    
    QMUNI8 ZMUNI4_PCT 626.93357   
    QMUNI8 ZMUNI5_PCT  -334.1675  
    QMUNI8 ZMUNI6_PCT  -293.15949 
    QMUNI8 ZMUNI7_PCT 1490.9744   
    QMUNI8 ZMUNI8_PCT 25597.0001  
    QMUNI8 ZMUNI9_PCT 500.9651    
    QMUNI9 OBJROW 1.          
    QMUNI9 ZMUNI1_PCT 530.3383    
    QMUNI9 ZMUNI2_PCT 827.5986    
    QMUNI9 ZMUNI3_PCT 630.188     
    QMUNI9 ZMUNI4_PCT 562.94202   
    QMUNI9 ZMUNI5_PCT 169.8494    
    QMUNI9 ZMUNI6_PCT 150.2037    
    QMUNI9 ZMUNI7_PCT 512.886     
    QMUNI9 ZMUNI8_PCT 1005.9356   
    QMUNI9 ZMUNI9_PCT 24580.4787  
RHS
    RHS ZMUNI1_PCT  -0.43740405
    RHS ZMUNI2_PCT  -0.33109934
    RHS ZMUNI3_PCT  -0.4054818 
    RHS ZMUNI4_PCT  -2.48112736
    RHS ZMUNI5_PCT 0.7669939365
    RHS ZMUNI6_PCT 0.2862121243
    RHS ZMUNI7_PCT 2.0438538217
    RHS ZMUNI8_PCT 1.3614530639
    RHS ZMUNI9_PCT 0.1456351415
BOUNDS
 LO BOUND QMUNI1 -0.001073118
 UP BOUND QMUNI1      1.1e+10
 LO BOUND QMUNI2 -0.000780878
 UP BOUND QMUNI2      1.1e+10
 LO BOUND QMUNI3 -0.000854028
 UP BOUND QMUNI3      1.1e+10
 LO BOUND QMUNI4 -0.000304429
 UP BOUND QMUNI4      1.1e+10
 LO BOUND QMUNI5 -0.000674406
 UP BOUND QMUNI5      1.1e+10
 LO BOUND QMUNI6 -0.000855005
 UP BOUND QMUNI6      1.1e+10
 LO BOUND QMUNI7 -0.000530264
 UP BOUND QMUNI7      1.1e+10
 LO BOUND QMUNI8 -0.000638853
 UP BOUND QMUNI8      1.1e+10
 LO BOUND QMUNI9 -0.000738753
 UP BOUND QMUNI9      1.1e+10
ENDATA
